proyfinal/src/viki/013/experimentInOfficeAgust.take6.output/5bc4e4d5-f7de-44d4-b988-3ddc496d2cde.als.dat
{'cnf.clauses': '118081',
 'cnf.totvars': '69608',
 'conflict literals': '17',
 'conflicts': '11',
 'decisions': '3343',
 'memused.mb': '17.60',
 'outcome': 'UNSAT',
 'propagations': '25164',
 'restarts': '1',
 'solver.msecs': 35,
 'task.msecs': 84}
