proyfinal/src/viki/013/experimentInOfficeAgust.take6.output/5bc4e4d5-f7de-44d4-b988-3ddc496d2cde.als.out
Reading from standard input... Use '--help' for help.
============================[ Problem Statistics ]=============================
|                                                                             |
|  Number of variables:         69608                                         |
|  Number of clauses:          118081                                         |
|  Parse time:                   0.03 s                                       |
|                                                                             |
============================[ Search Statistics ]==============================
| Conflicts |          ORIGINAL         |          LEARNT          | Progress |
|           |    Vars  Clauses Literals |    Limit  Clauses Lit/Cl |          |
===============================================================================
===============================================================================
restarts              : 1
conflicts             : 11             (311 /sec)
decisions             : 3343           (0.00 % random) (94430 /sec)
propagations          : 25164          (710807 /sec)
conflict literals     : 17             (0.00 % deleted)
Memory used           : 17.60 MB
CPU time              : 0.035402 s

UNSATISFIABLE
